
c turning on binary mode checking

c parsing input formula with 26 variables and 1248 clauses

c finished parsing, read 531 bytes from proof file

c detected empty clause; start verification via backward checking

c 130 of 1248 clauses in core                            

c 60 of 70 lemmas in core using 519 resolution steps

c 0 RAT lemmas in core; 3 redundant literals in core lemmas

s VERIFIED

c verification time: 0.055 seconds
